100
32
24
15
3
1
24
11
1
19
15
29
11
23
23
4
4
12
5
5
30
5
10
31
8
6
5
4
11
10
6
20
16
5
6
5
2
19
21
2
30
5
19
4
4
2
2
1
3
4
2
4
4
4
17
1
2
2
18
2
3
2
1
2
1
1
3
2
18
6
1
7
2
3
20
6
4
2
17
1
1
1
3
3
2
1
1
6
1
1
18
1
1
17
2
7
2
3
6
4
2
2